(declare-const X String)
; dl\x2Eweb-nexus\x2Enet\d+www\x2Eonlinecasinoextra\x2Ecomsqlads\.grokads\.com
(assert (not (str.in_re X (re.++ (str.to_re "dl.web-nexus.net") (re.+ (re.range "0" "9")) (str.to_re "www.onlinecasinoextra.comsqlads.grokads.com\u{a}")))))
; /filename=[^\n]*\x2ecpe/i
(assert (str.in_re X (re.++ (str.to_re "/filename=") (re.* (re.comp (str.to_re "\u{a}"))) (str.to_re ".cpe/i\u{a}"))))
(check-sat)
